* SDPA sparse format data
* File name = st_e42.dat-s
* mDim = 104, nBlock = 13
* size of bVect = 1 * 104
* size of sparseMatrix = 1054 * 5
104
 13
-56 -138  8  7  7  7  7  7  7  7  7  7  7 
   1.0000000000    1.0000000000    0.0000000000    0.0000000000    0.0000000000    0.0000000000    0.0000000000    0.0000000000    0.0000000000    0.0000000000    0.0000000000    0.0000000000    0.0000000000    0.0000000000    0.0000000000    0.0000000000    0.0000000000    0.0000000000    0.0000000000    0.0000000000    0.0000000000    0.0000000000    0.0000000000    0.0000000000    0.0000000000    0.0000000000    0.0000000000    0.0000000000    0.0000000000    0.0000000000    0.0000000000    0.0000000000    0.0000000000    0.0000000000    0.0000000000    0.0000000000    0.0000000000    0.0000000000    0.0000000000    0.0000000000    0.0000000000    0.0000000000    0.0000000000    0.0000000000    0.0000000000    0.0000000000    0.0000000000    0.0000000000    0.0000000000    0.0000000000    0.0000000000    0.0000000000    0.0000000000    0.0000000000    0.0000000000    0.0000000000    0.0000000000    0.0000000000    0.0000000000    0.0000000000    0.0000000000    0.0000000000    0.0000000000    0.0000000000    0.0000000000    0.0000000000    0.0000000000    0.0000000000    0.0000000000    0.0000000000    0.0000000000    0.0000000000    0.0000000000    0.0000000000    0.0000000000    0.0000000000    0.0000000000    0.0000000000    0.0000000000    0.0000000000    0.0000000000    0.0000000000    0.0000000000    0.0000000000    0.0000000000    0.0000000000    0.0000000000    0.0000000000    0.0000000000    0.0000000000    0.0000000000    0.0000000000    0.0000000000    0.0000000000    0.0000000000    0.0000000000    0.0000000000    0.0000000000    0.0000000000    0.0000000000    0.0000000000    0.0000000000    0.0000000000    0.0000000000 
  0   1   1   1   -0.3002673588
  1   1   1   1   -0.0118091360
  2   1   1   1    0.0118091360
  3   1   1   1   -0.0784421860
  4   1   1   1    0.6090113155
  5   1   1   1    1.0000000000
  6   1   1   1    0.0980347236
 26   1   1   1   -0.7185316048
  1   1   2   2    0.3002673588
  7   1   2   2   -0.0118091360
  8   1   2   2    0.0118091360
  9   1   2   2   -0.0784421860
 10   1   2   2    0.6090113155
 11   1   2   2    1.0000000000
 12   1   2   2    0.0980347236
 47   1   2   2   -0.7185316048
  2   1   3   3    0.3002673588
  8   1   3   3   -0.0118091360
 13   1   3   3    0.0118091360
 14   1   3   3   -0.0784421860
 15   1   3   3    0.6090113155
 16   1   3   3    1.0000000000
 17   1   3   3    0.0980347236
 62   1   3   3   -0.7185316048
  3   1   4   4    0.3002673588
  9   1   4   4   -0.0118091360
 14   1   4   4    0.0118091360
 18   1   4   4   -0.0784421860
 19   1   4   4    0.6090113155
 20   1   4   4    1.0000000000
 21   1   4   4    0.0980347236
 72   1   4   4   -0.7185316048
  4   1   5   5    0.3002673588
 10   1   5   5   -0.0118091360
 15   1   5   5    0.0118091360
 19   1   5   5   -0.0784421860
 22   1   5   5    0.6090113155
 23   1   5   5    1.0000000000
 24   1   5   5    0.0980347236
 78   1   5   5   -0.7185316048
  5   1   6   6    0.3002673588
 11   1   6   6   -0.0118091360
 16   1   6   6    0.0118091360
 20   1   6   6   -0.0784421860
 23   1   6   6    0.6090113155
 25   1   6   6    1.0000000000
 26   1   6   6    0.0980347236
 81   1   6   6   -0.7185316048
  6   1   7   7    0.3002673588
 12   1   7   7   -0.0118091360
 17   1   7   7    0.0118091360
 21   1   7   7   -0.0784421860
 24   1   7   7    0.6090113155
 26   1   7   7    1.0000000000
 27   1   7   7    0.0980347236
 82   1   7   7   -0.7185316048
  7   1   8   8    0.3002673588
 28   1   8   8   -0.0118091360
 29   1   8   8    0.0118091360
 30   1   8   8   -0.0784421860
 31   1   8   8    0.6090113155
 32   1   8   8    1.0000000000
 33   1   8   8    0.0980347236
 84   1   8   8   -0.7185316048
  8   1   9   9    0.3002673588
 29   1   9   9   -0.0118091360
 34   1   9   9    0.0118091360
 35   1   9   9   -0.0784421860
 36   1   9   9    0.6090113155
 37   1   9   9    1.0000000000
 38   1   9   9    0.0980347236
 85   1   9   9   -0.7185316048
  9   1  10  10    0.3002673588
 30   1  10  10   -0.0118091360
 35   1  10  10    0.0118091360
 39   1  10  10   -0.0784421860
 40   1  10  10    0.6090113155
 41   1  10  10    1.0000000000
 42   1  10  10    0.0980347236
 86   1  10  10   -0.7185316048
 10   1  11  11    0.3002673588
 31   1  11  11   -0.0118091360
 36   1  11  11    0.0118091360
 40   1  11  11   -0.0784421860
 43   1  11  11    0.6090113155
 44   1  11  11    1.0000000000
 45   1  11  11    0.0980347236
 87   1  11  11   -0.7185316048
 11   1  12  12    0.3002673588
 32   1  12  12   -0.0118091360
 37   1  12  12    0.0118091360
 41   1  12  12   -0.0784421860
 44   1  12  12    0.6090113155
 46   1  12  12    1.0000000000
 47   1  12  12    0.0980347236
 88   1  12  12   -0.7185316048
 12   1  13  13    0.3002673588
 33   1  13  13   -0.0118091360
 38   1  13  13    0.0118091360
 42   1  13  13   -0.0784421860
 45   1  13  13    0.6090113155
 47   1  13  13    1.0000000000
 48   1  13  13    0.0980347236
 89   1  13  13   -0.7185316048
 13   1  14  14    0.3002673588
 34   1  14  14   -0.0118091360
 49   1  14  14    0.0118091360
 50   1  14  14   -0.0784421860
 51   1  14  14    0.6090113155
 52   1  14  14    1.0000000000
 53   1  14  14    0.0980347236
 90   1  14  14   -0.7185316048
 14   1  15  15    0.3002673588
 35   1  15  15   -0.0118091360
 50   1  15  15    0.0118091360
 54   1  15  15   -0.0784421860
 55   1  15  15    0.6090113155
 56   1  15  15    1.0000000000
 57   1  15  15    0.0980347236
 91   1  15  15   -0.7185316048
 15   1  16  16    0.3002673588
 36   1  16  16   -0.0118091360
 51   1  16  16    0.0118091360
 55   1  16  16   -0.0784421860
 58   1  16  16    0.6090113155
 59   1  16  16    1.0000000000
 60   1  16  16    0.0980347236
 92   1  16  16   -0.7185316048
 16   1  17  17    0.3002673588
 37   1  17  17   -0.0118091360
 52   1  17  17    0.0118091360
 56   1  17  17   -0.0784421860
 59   1  17  17    0.6090113155
 61   1  17  17    1.0000000000
 62   1  17  17    0.0980347236
 93   1  17  17   -0.7185316048
 17   1  18  18    0.3002673588
 38   1  18  18   -0.0118091360
 53   1  18  18    0.0118091360
 57   1  18  18   -0.0784421860
 60   1  18  18    0.6090113155
 62   1  18  18    1.0000000000
 63   1  18  18    0.0980347236
 94   1  18  18   -0.7185316048
 18   1  19  19    0.3002673588
 39   1  19  19   -0.0118091360
 54   1  19  19    0.0118091360
 64   1  19  19   -0.0784421860
 65   1  19  19    0.6090113155
 66   1  19  19    1.0000000000
 67   1  19  19    0.0980347236
 95   1  19  19   -0.7185316048
 19   1  20  20    0.3002673588
 40   1  20  20   -0.0118091360
 55   1  20  20    0.0118091360
 65   1  20  20   -0.0784421860
 68   1  20  20    0.6090113155
 69   1  20  20    1.0000000000
 70   1  20  20    0.0980347236
 96   1  20  20   -0.7185316048
 20   1  21  21    0.3002673588
 41   1  21  21   -0.0118091360
 56   1  21  21    0.0118091360
 66   1  21  21   -0.0784421860
 69   1  21  21    0.6090113155
 71   1  21  21    1.0000000000
 72   1  21  21    0.0980347236
 97   1  21  21   -0.7185316048
 21   1  22  22    0.3002673588
 42   1  22  22   -0.0118091360
 57   1  22  22    0.0118091360
 67   1  22  22   -0.0784421860
 70   1  22  22    0.6090113155
 72   1  22  22    1.0000000000
 73   1  22  22    0.0980347236
 98   1  22  22   -0.7185316048
 22   1  23  23    0.3002673588
 43   1  23  23   -0.0118091360
 58   1  23  23    0.0118091360
 68   1  23  23   -0.0784421860
 74   1  23  23    0.6090113155
 75   1  23  23    1.0000000000
 76   1  23  23    0.0980347236
 99   1  23  23   -0.7185316048
 23   1  24  24    0.3002673588
 44   1  24  24   -0.0118091360
 59   1  24  24    0.0118091360
 69   1  24  24   -0.0784421860
 75   1  24  24    0.6090113155
 77   1  24  24    1.0000000000
 78   1  24  24    0.0980347236
100   1  24  24   -0.7185316048
 24   1  25  25    0.3002673588
 45   1  25  25   -0.0118091360
 60   1  25  25    0.0118091360
 70   1  25  25   -0.0784421860
 76   1  25  25    0.6090113155
 78   1  25  25    1.0000000000
 79   1  25  25    0.0980347236
101   1  25  25   -0.7185316048
 25   1  26  26    0.3002673588
 46   1  26  26   -0.0118091360
 61   1  26  26    0.0118091360
 71   1  26  26   -0.0784421860
 77   1  26  26    0.6090113155
 80   1  26  26    1.0000000000
 81   1  26  26    0.0980347236
102   1  26  26   -0.7185316048
 26   1  27  27    0.3002673588
 47   1  27  27   -0.0118091360
 62   1  27  27    0.0118091360
 72   1  27  27   -0.0784421860
 78   1  27  27    0.6090113155
 81   1  27  27    1.0000000000
 82   1  27  27    0.0980347236
103   1  27  27   -0.7185316048
 27   1  28  28    0.3002673588
 48   1  28  28   -0.0118091360
 63   1  28  28    0.0118091360
 73   1  28  28   -0.0784421860
 79   1  28  28    0.6090113155
 82   1  28  28    1.0000000000
 83   1  28  28    0.0980347236
104   1  28  28   -0.7185316048
  0   1  29  29    0.3002673588
  1   1  29  29    0.0118091360
  2   1  29  29   -0.0118091360
  3   1  29  29    0.0784421860
  4   1  29  29   -0.6090113155
  5   1  29  29   -1.0000000000
  6   1  29  29   -0.0980347236
 26   1  29  29    0.7185316048
  1   1  30  30   -0.3002673588
  7   1  30  30    0.0118091360
  8   1  30  30   -0.0118091360
  9   1  30  30    0.0784421860
 10   1  30  30   -0.6090113155
 11   1  30  30   -1.0000000000
 12   1  30  30   -0.0980347236
 47   1  30  30    0.7185316048
  2   1  31  31   -0.3002673588
  8   1  31  31    0.0118091360
 13   1  31  31   -0.0118091360
 14   1  31  31    0.0784421860
 15   1  31  31   -0.6090113155
 16   1  31  31   -1.0000000000
 17   1  31  31   -0.0980347236
 62   1  31  31    0.7185316048
  3   1  32  32   -0.3002673588
  9   1  32  32    0.0118091360
 14   1  32  32   -0.0118091360
 18   1  32  32    0.0784421860
 19   1  32  32   -0.6090113155
 20   1  32  32   -1.0000000000
 21   1  32  32   -0.0980347236
 72   1  32  32    0.7185316048
  4   1  33  33   -0.3002673588
 10   1  33  33    0.0118091360
 15   1  33  33   -0.0118091360
 19   1  33  33    0.0784421860
 22   1  33  33   -0.6090113155
 23   1  33  33   -1.0000000000
 24   1  33  33   -0.0980347236
 78   1  33  33    0.7185316048
  5   1  34  34   -0.3002673588
 11   1  34  34    0.0118091360
 16   1  34  34   -0.0118091360
 20   1  34  34    0.0784421860
 23   1  34  34   -0.6090113155
 25   1  34  34   -1.0000000000
 26   1  34  34   -0.0980347236
 81   1  34  34    0.7185316048
  6   1  35  35   -0.3002673588
 12   1  35  35    0.0118091360
 17   1  35  35   -0.0118091360
 21   1  35  35    0.0784421860
 24   1  35  35   -0.6090113155
 26   1  35  35   -1.0000000000
 27   1  35  35   -0.0980347236
 82   1  35  35    0.7185316048
  7   1  36  36   -0.3002673588
 28   1  36  36    0.0118091360
 29   1  36  36   -0.0118091360
 30   1  36  36    0.0784421860
 31   1  36  36   -0.6090113155
 32   1  36  36   -1.0000000000
 33   1  36  36   -0.0980347236
 84   1  36  36    0.7185316048
  8   1  37  37   -0.3002673588
 29   1  37  37    0.0118091360
 34   1  37  37   -0.0118091360
 35   1  37  37    0.0784421860
 36   1  37  37   -0.6090113155
 37   1  37  37   -1.0000000000
 38   1  37  37   -0.0980347236
 85   1  37  37    0.7185316048
  9   1  38  38   -0.3002673588
 30   1  38  38    0.0118091360
 35   1  38  38   -0.0118091360
 39   1  38  38    0.0784421860
 40   1  38  38   -0.6090113155
 41   1  38  38   -1.0000000000
 42   1  38  38   -0.0980347236
 86   1  38  38    0.7185316048
 10   1  39  39   -0.3002673588
 31   1  39  39    0.0118091360
 36   1  39  39   -0.0118091360
 40   1  39  39    0.0784421860
 43   1  39  39   -0.6090113155
 44   1  39  39   -1.0000000000
 45   1  39  39   -0.0980347236
 87   1  39  39    0.7185316048
 11   1  40  40   -0.3002673588
 32   1  40  40    0.0118091360
 37   1  40  40   -0.0118091360
 41   1  40  40    0.0784421860
 44   1  40  40   -0.6090113155
 46   1  40  40   -1.0000000000
 47   1  40  40   -0.0980347236
 88   1  40  40    0.7185316048
 12   1  41  41   -0.3002673588
 33   1  41  41    0.0118091360
 38   1  41  41   -0.0118091360
 42   1  41  41    0.0784421860
 45   1  41  41   -0.6090113155
 47   1  41  41   -1.0000000000
 48   1  41  41   -0.0980347236
 89   1  41  41    0.7185316048
 13   1  42  42   -0.3002673588
 34   1  42  42    0.0118091360
 49   1  42  42   -0.0118091360
 50   1  42  42    0.0784421860
 51   1  42  42   -0.6090113155
 52   1  42  42   -1.0000000000
 53   1  42  42   -0.0980347236
 90   1  42  42    0.7185316048
 14   1  43  43   -0.3002673588
 35   1  43  43    0.0118091360
 50   1  43  43   -0.0118091360
 54   1  43  43    0.0784421860
 55   1  43  43   -0.6090113155
 56   1  43  43   -1.0000000000
 57   1  43  43   -0.0980347236
 91   1  43  43    0.7185316048
 15   1  44  44   -0.3002673588
 36   1  44  44    0.0118091360
 51   1  44  44   -0.0118091360
 55   1  44  44    0.0784421860
 58   1  44  44   -0.6090113155
 59   1  44  44   -1.0000000000
 60   1  44  44   -0.0980347236
 92   1  44  44    0.7185316048
 16   1  45  45   -0.3002673588
 37   1  45  45    0.0118091360
 52   1  45  45   -0.0118091360
 56   1  45  45    0.0784421860
 59   1  45  45   -0.6090113155
 61   1  45  45   -1.0000000000
 62   1  45  45   -0.0980347236
 93   1  45  45    0.7185316048
 17   1  46  46   -0.3002673588
 38   1  46  46    0.0118091360
 53   1  46  46   -0.0118091360
 57   1  46  46    0.0784421860
 60   1  46  46   -0.6090113155
 62   1  46  46   -1.0000000000
 63   1  46  46   -0.0980347236
 94   1  46  46    0.7185316048
 18   1  47  47   -0.3002673588
 39   1  47  47    0.0118091360
 54   1  47  47   -0.0118091360
 64   1  47  47    0.0784421860
 65   1  47  47   -0.6090113155
 66   1  47  47   -1.0000000000
 67   1  47  47   -0.0980347236
 95   1  47  47    0.7185316048
 19   1  48  48   -0.3002673588
 40   1  48  48    0.0118091360
 55   1  48  48   -0.0118091360
 65   1  48  48    0.0784421860
 68   1  48  48   -0.6090113155
 69   1  48  48   -1.0000000000
 70   1  48  48   -0.0980347236
 96   1  48  48    0.7185316048
 20   1  49  49   -0.3002673588
 41   1  49  49    0.0118091360
 56   1  49  49   -0.0118091360
 66   1  49  49    0.0784421860
 69   1  49  49   -0.6090113155
 71   1  49  49   -1.0000000000
 72   1  49  49   -0.0980347236
 97   1  49  49    0.7185316048
 21   1  50  50   -0.3002673588
 42   1  50  50    0.0118091360
 57   1  50  50   -0.0118091360
 67   1  50  50    0.0784421860
 70   1  50  50   -0.6090113155
 72   1  50  50   -1.0000000000
 73   1  50  50   -0.0980347236
 98   1  50  50    0.7185316048
 22   1  51  51   -0.3002673588
 43   1  51  51    0.0118091360
 58   1  51  51   -0.0118091360
 68   1  51  51    0.0784421860
 74   1  51  51   -0.6090113155
 75   1  51  51   -1.0000000000
 76   1  51  51   -0.0980347236
 99   1  51  51    0.7185316048
 23   1  52  52   -0.3002673588
 44   1  52  52    0.0118091360
 59   1  52  52   -0.0118091360
 69   1  52  52    0.0784421860
 75   1  52  52   -0.6090113155
 77   1  52  52   -1.0000000000
 78   1  52  52   -0.0980347236
100   1  52  52    0.7185316048
 24   1  53  53   -0.3002673588
 45   1  53  53    0.0118091360
 60   1  53  53   -0.0118091360
 70   1  53  53    0.0784421860
 76   1  53  53   -0.6090113155
 78   1  53  53   -1.0000000000
 79   1  53  53   -0.0980347236
101   1  53  53    0.7185316048
 25   1  54  54   -0.3002673588
 46   1  54  54    0.0118091360
 61   1  54  54   -0.0118091360
 71   1  54  54    0.0784421860
 77   1  54  54   -0.6090113155
 80   1  54  54   -1.0000000000
 81   1  54  54   -0.0980347236
102   1  54  54    0.7185316048
 26   1  55  55   -0.3002673588
 47   1  55  55    0.0118091360
 62   1  55  55   -0.0118091360
 72   1  55  55    0.0784421860
 78   1  55  55   -0.6090113155
 81   1  55  55   -1.0000000000
 82   1  55  55   -0.0980347236
103   1  55  55    0.7185316048
 27   1  56  56   -0.3002673588
 48   1  56  56    0.0118091360
 63   1  56  56   -0.0118091360
 73   1  56  56    0.0784421860
 79   1  56  56   -0.6090113155
 82   1  56  56   -1.0000000000
 83   1  56  56   -0.0980347236
104   1  56  56    0.7185316048
  7   2   1   1    1.0000000000
  8   2   2   2    1.0000000000
  9   2   3   3    1.0000000000
 10   2   4   4    1.0000000000
 11   2   5   5    1.0000000000
 12   2   6   6    1.0000000000
 13   2   7   7    1.0000000000
 14   2   8   8    1.0000000000
 15   2   9   9    1.0000000000
 16   2  10  10    1.0000000000
 17   2  11  11    1.0000000000
 18   2  12  12    1.0000000000
 18   2  13  13   -1.0000000000
  0   2  13  13   -1.0000000000
 19   2  14  14    1.0000000000
 19   2  15  15   -1.0000000000
  0   2  15  15   -1.0000000000
 20   2  16  16    1.0000000000
 20   2  17  17   -1.0000000000
  0   2  17  17   -1.0000000000
 21   2  18  18    1.0000000000
 21   2  19  19   -1.0000000000
  0   2  19  19   -1.0000000000
 22   2  20  20    1.0000000000
 22   2  21  21   -1.0000000000
  0   2  21  21   -1.0000000000
 23   2  22  22    1.0000000000
 23   2  23  23   -1.0000000000
  0   2  23  23   -1.0000000000
 24   2  24  24    1.0000000000
 24   2  25  25   -1.0000000000
  0   2  25  25   -1.0000000000
 25   2  26  26    1.0000000000
 25   2  27  27   -1.0000000000
  0   2  27  27   -1.0000000000
 26   2  28  28    1.0000000000
 26   2  29  29   -1.0000000000
  0   2  29  29   -1.0000000000
 27   2  30  30    1.0000000000
 27   2  31  31   -1.0000000000
  0   2  31  31   -1.0000000000
 28   2  32  32    1.0000000000
 29   2  33  33    1.0000000000
 30   2  34  34    1.0000000000
 31   2  35  35    1.0000000000
 32   2  36  36    1.0000000000
 33   2  37  37    1.0000000000
 34   2  38  38    1.0000000000
 35   2  39  39    1.0000000000
 36   2  40  40    1.0000000000
 37   2  41  41    1.0000000000
 38   2  42  42    1.0000000000
 39   2  43  43    1.0000000000
 40   2  44  44    1.0000000000
 41   2  45  45    1.0000000000
 42   2  46  46    1.0000000000
 43   2  47  47    1.0000000000
 44   2  48  48    1.0000000000
 45   2  49  49    1.0000000000
 46   2  50  50    1.0000000000
 47   2  51  51    1.0000000000
 48   2  52  52    1.0000000000
 49   2  53  53    1.0000000000
 50   2  54  54    1.0000000000
 51   2  55  55    1.0000000000
 52   2  56  56    1.0000000000
 53   2  57  57    1.0000000000
 54   2  58  58    1.0000000000
 55   2  59  59    1.0000000000
 56   2  60  60    1.0000000000
 57   2  61  61    1.0000000000
 58   2  62  62    1.0000000000
 59   2  63  63    1.0000000000
 60   2  64  64    1.0000000000
 61   2  65  65    1.0000000000
 62   2  66  66    1.0000000000
 63   2  67  67    1.0000000000
 64   2  68  68    1.0000000000
 64   2  69  69   -1.0000000000
  0   2  69  69   -1.0000000000
 65   2  70  70    1.0000000000
 65   2  71  71   -1.0000000000
  0   2  71  71   -1.0000000000
 66   2  72  72    1.0000000000
 66   2  73  73   -1.0000000000
  0   2  73  73   -1.0000000000
 67   2  74  74    1.0000000000
 67   2  75  75   -1.0000000000
  0   2  75  75   -1.0000000000
 68   2  76  76    1.0000000000
 68   2  77  77   -1.0000000000
  0   2  77  77   -1.0000000000
 69   2  78  78    1.0000000000
 69   2  79  79   -1.0000000000
  0   2  79  79   -1.0000000000
 70   2  80  80    1.0000000000
 70   2  81  81   -1.0000000000
  0   2  81  81   -1.0000000000
 71   2  82  82    1.0000000000
 71   2  83  83   -1.0000000000
  0   2  83  83   -1.0000000000
 72   2  84  84    1.0000000000
 72   2  85  85   -1.0000000000
  0   2  85  85   -1.0000000000
 73   2  86  86    1.0000000000
 73   2  87  87   -1.0000000000
  0   2  87  87   -1.0000000000
 74   2  88  88    1.0000000000
 74   2  89  89   -1.0000000000
  0   2  89  89   -1.0000000000
 75   2  90  90    1.0000000000
 75   2  91  91   -1.0000000000
  0   2  91  91   -1.0000000000
 76   2  92  92    1.0000000000
 76   2  93  93   -1.0000000000
  0   2  93  93   -1.0000000000
 77   2  94  94    1.0000000000
 77   2  95  95   -1.0000000000
  0   2  95  95   -1.0000000000
 78   2  96  96    1.0000000000
 78   2  97  97   -1.0000000000
  0   2  97  97   -1.0000000000
 79   2  98  98    1.0000000000
 79   2  99  99   -1.0000000000
  0   2  99  99   -1.0000000000
 80   2 100 100    1.0000000000
 80   2 101 101   -1.0000000000
  0   2 101 101   -1.0000000000
 81   2 102 102    1.0000000000
 81   2 103 103   -1.0000000000
  0   2 103 103   -1.0000000000
 82   2 104 104    1.0000000000
 82   2 105 105   -1.0000000000
  0   2 105 105   -1.0000000000
 83   2 106 106    1.0000000000
 83   2 107 107   -1.0000000000
  0   2 107 107   -1.0000000000
 84   2 108 108    1.0000000000
 85   2 109 109    1.0000000000
 86   2 110 110    1.0000000000
 87   2 111 111    1.0000000000
 88   2 112 112    1.0000000000
 89   2 113 113    1.0000000000
 90   2 114 114    1.0000000000
 91   2 115 115    1.0000000000
 92   2 116 116    1.0000000000
 93   2 117 117    1.0000000000
 94   2 118 118    1.0000000000
 95   2 119 119    1.0000000000
 95   2 120 120   -1.0000000000
  0   2 120 120   -1.0000000000
 96   2 121 121    1.0000000000
 96   2 122 122   -1.0000000000
  0   2 122 122   -1.0000000000
 97   2 123 123    1.0000000000
 97   2 124 124   -1.0000000000
  0   2 124 124   -1.0000000000
 98   2 125 125    1.0000000000
 98   2 126 126   -1.0000000000
  0   2 126 126   -1.0000000000
 99   2 127 127    1.0000000000
 99   2 128 128   -1.0000000000
  0   2 128 128   -1.0000000000
100   2 129 129    1.0000000000
100   2 130 130   -1.0000000000
  0   2 130 130   -1.0000000000
101   2 131 131    1.0000000000
101   2 132 132   -1.0000000000
  0   2 132 132   -1.0000000000
102   2 133 133    1.0000000000
102   2 134 134   -1.0000000000
  0   2 134 134   -1.0000000000
103   2 135 135    1.0000000000
103   2 136 136   -1.0000000000
  0   2 136 136   -1.0000000000
104   2 137 137    1.0000000000
104   2 138 138   -1.0000000000
  0   2 138 138   -1.0000000000
  0   3   1   1   -1.0000000000
  1   3   1   2    1.0000000000
  2   3   1   3    1.0000000000
  3   3   1   4    1.0000000000
  4   3   1   5    1.0000000000
  5   3   1   6    1.0000000000
  6   3   1   7    1.0000000000
 26   3   1   8    1.0000000000
  7   3   2   2    1.0000000000
  8   3   2   3    1.0000000000
  9   3   2   4    1.0000000000
 10   3   2   5    1.0000000000
 11   3   2   6    1.0000000000
 12   3   2   7    1.0000000000
 47   3   2   8    1.0000000000
 13   3   3   3    1.0000000000
 14   3   3   4    1.0000000000
 15   3   3   5    1.0000000000
 16   3   3   6    1.0000000000
 17   3   3   7    1.0000000000
 62   3   3   8    1.0000000000
 18   3   4   4    1.0000000000
 19   3   4   5    1.0000000000
 20   3   4   6    1.0000000000
 21   3   4   7    1.0000000000
 72   3   4   8    1.0000000000
 22   3   5   5    1.0000000000
 23   3   5   6    1.0000000000
 24   3   5   7    1.0000000000
 78   3   5   8    1.0000000000
 25   3   6   6    1.0000000000
 26   3   6   7    1.0000000000
 81   3   6   8    1.0000000000
 27   3   7   7    1.0000000000
 82   3   7   8    1.0000000000
103   3   8   8    1.0000000000
  1   4   1   1    1.0000000000
  7   4   1   2    1.0000000000
  8   4   1   3    1.0000000000
  9   4   1   4    1.0000000000
 10   4   1   5    1.0000000000
 11   4   1   6    1.0000000000
 12   4   1   7    1.0000000000
 28   4   2   2    1.0000000000
 29   4   2   3    1.0000000000
 30   4   2   4    1.0000000000
 31   4   2   5    1.0000000000
 32   4   2   6    1.0000000000
 33   4   2   7    1.0000000000
 34   4   3   3    1.0000000000
 35   4   3   4    1.0000000000
 36   4   3   5    1.0000000000
 37   4   3   6    1.0000000000
 38   4   3   7    1.0000000000
 39   4   4   4    1.0000000000
 40   4   4   5    1.0000000000
 41   4   4   6    1.0000000000
 42   4   4   7    1.0000000000
 43   4   5   5    1.0000000000
 44   4   5   6    1.0000000000
 45   4   5   7    1.0000000000
 46   4   6   6    1.0000000000
 47   4   6   7    1.0000000000
 48   4   7   7    1.0000000000
  2   5   1   1    1.0000000000
  8   5   1   2    1.0000000000
 13   5   1   3    1.0000000000
 14   5   1   4    1.0000000000
 15   5   1   5    1.0000000000
 16   5   1   6    1.0000000000
 17   5   1   7    1.0000000000
 29   5   2   2    1.0000000000
 34   5   2   3    1.0000000000
 35   5   2   4    1.0000000000
 36   5   2   5    1.0000000000
 37   5   2   6    1.0000000000
 38   5   2   7    1.0000000000
 49   5   3   3    1.0000000000
 50   5   3   4    1.0000000000
 51   5   3   5    1.0000000000
 52   5   3   6    1.0000000000
 53   5   3   7    1.0000000000
 54   5   4   4    1.0000000000
 55   5   4   5    1.0000000000
 56   5   4   6    1.0000000000
 57   5   4   7    1.0000000000
 58   5   5   5    1.0000000000
 59   5   5   6    1.0000000000
 60   5   5   7    1.0000000000
 61   5   6   6    1.0000000000
 62   5   6   7    1.0000000000
 63   5   7   7    1.0000000000
  3   6   1   1    1.0000000000
  9   6   1   2    1.0000000000
 14   6   1   3    1.0000000000
 18   6   1   4    1.0000000000
 19   6   1   5    1.0000000000
 20   6   1   6    1.0000000000
 21   6   1   7    1.0000000000
 30   6   2   2    1.0000000000
 35   6   2   3    1.0000000000
 39   6   2   4    1.0000000000
 40   6   2   5    1.0000000000
 41   6   2   6    1.0000000000
 42   6   2   7    1.0000000000
 50   6   3   3    1.0000000000
 54   6   3   4    1.0000000000
 55   6   3   5    1.0000000000
 56   6   3   6    1.0000000000
 57   6   3   7    1.0000000000
 64   6   4   4    1.0000000000
 65   6   4   5    1.0000000000
 66   6   4   6    1.0000000000
 67   6   4   7    1.0000000000
 68   6   5   5    1.0000000000
 69   6   5   6    1.0000000000
 70   6   5   7    1.0000000000
 71   6   6   6    1.0000000000
 72   6   6   7    1.0000000000
 73   6   7   7    1.0000000000
  4   7   1   1    1.0000000000
 10   7   1   2    1.0000000000
 15   7   1   3    1.0000000000
 19   7   1   4    1.0000000000
 22   7   1   5    1.0000000000
 23   7   1   6    1.0000000000
 24   7   1   7    1.0000000000
 31   7   2   2    1.0000000000
 36   7   2   3    1.0000000000
 40   7   2   4    1.0000000000
 43   7   2   5    1.0000000000
 44   7   2   6    1.0000000000
 45   7   2   7    1.0000000000
 51   7   3   3    1.0000000000
 55   7   3   4    1.0000000000
 58   7   3   5    1.0000000000
 59   7   3   6    1.0000000000
 60   7   3   7    1.0000000000
 65   7   4   4    1.0000000000
 68   7   4   5    1.0000000000
 69   7   4   6    1.0000000000
 70   7   4   7    1.0000000000
 74   7   5   5    1.0000000000
 75   7   5   6    1.0000000000
 76   7   5   7    1.0000000000
 77   7   6   6    1.0000000000
 78   7   6   7    1.0000000000
 79   7   7   7    1.0000000000
  5   8   1   1    1.0000000000
 11   8   1   2    1.0000000000
 16   8   1   3    1.0000000000
 20   8   1   4    1.0000000000
 23   8   1   5    1.0000000000
 25   8   1   6    1.0000000000
 26   8   1   7    1.0000000000
 32   8   2   2    1.0000000000
 37   8   2   3    1.0000000000
 41   8   2   4    1.0000000000
 44   8   2   5    1.0000000000
 46   8   2   6    1.0000000000
 47   8   2   7    1.0000000000
 52   8   3   3    1.0000000000
 56   8   3   4    1.0000000000
 59   8   3   5    1.0000000000
 61   8   3   6    1.0000000000
 62   8   3   7    1.0000000000
 66   8   4   4    1.0000000000
 69   8   4   5    1.0000000000
 71   8   4   6    1.0000000000
 72   8   4   7    1.0000000000
 75   8   5   5    1.0000000000
 77   8   5   6    1.0000000000
 78   8   5   7    1.0000000000
 80   8   6   6    1.0000000000
 81   8   6   7    1.0000000000
 82   8   7   7    1.0000000000
  6   9   1   1    1.0000000000
 12   9   1   2    1.0000000000
 17   9   1   3    1.0000000000
 21   9   1   4    1.0000000000
 24   9   1   5    1.0000000000
 26   9   1   6    1.0000000000
 27   9   1   7    1.0000000000
 33   9   2   2    1.0000000000
 38   9   2   3    1.0000000000
 42   9   2   4    1.0000000000
 45   9   2   5    1.0000000000
 47   9   2   6    1.0000000000
 48   9   2   7    1.0000000000
 53   9   3   3    1.0000000000
 57   9   3   4    1.0000000000
 60   9   3   5    1.0000000000
 62   9   3   6    1.0000000000
 63   9   3   7    1.0000000000
 67   9   4   4    1.0000000000
 70   9   4   5    1.0000000000
 72   9   4   6    1.0000000000
 73   9   4   7    1.0000000000
 76   9   5   5    1.0000000000
 78   9   5   6    1.0000000000
 79   9   5   7    1.0000000000
 81   9   6   6    1.0000000000
 82   9   6   7    1.0000000000
 83   9   7   7    1.0000000000
  0  10   1   1   -1.0000000000
  3  10   1   1   -1.0000000000
  1  10   1   2    1.0000000000
  9  10   1   2   -1.0000000000
  2  10   1   3    1.0000000000
 14  10   1   3   -1.0000000000
  3  10   1   4    1.0000000000
 18  10   1   4   -1.0000000000
  4  10   1   5    1.0000000000
 19  10   1   5   -1.0000000000
  5  10   1   6    1.0000000000
 20  10   1   6   -1.0000000000
  6  10   1   7    1.0000000000
 21  10   1   7   -1.0000000000
  7  10   2   2    1.0000000000
 30  10   2   2   -1.0000000000
  8  10   2   3    1.0000000000
 35  10   2   3   -1.0000000000
  9  10   2   4    1.0000000000
 39  10   2   4   -1.0000000000
 10  10   2   5    1.0000000000
 40  10   2   5   -1.0000000000
 11  10   2   6    1.0000000000
 41  10   2   6   -1.0000000000
 12  10   2   7    1.0000000000
 42  10   2   7   -1.0000000000
 13  10   3   3    1.0000000000
 50  10   3   3   -1.0000000000
 14  10   3   4    1.0000000000
 54  10   3   4   -1.0000000000
 15  10   3   5    1.0000000000
 55  10   3   5   -1.0000000000
 16  10   3   6    1.0000000000
 56  10   3   6   -1.0000000000
 17  10   3   7    1.0000000000
 57  10   3   7   -1.0000000000
 18  10   4   4    1.0000000000
 64  10   4   4   -1.0000000000
 19  10   4   5    1.0000000000
 65  10   4   5   -1.0000000000
 20  10   4   6    1.0000000000
 66  10   4   6   -1.0000000000
 21  10   4   7    1.0000000000
 67  10   4   7   -1.0000000000
 22  10   5   5    1.0000000000
 68  10   5   5   -1.0000000000
 23  10   5   6    1.0000000000
 69  10   5   6   -1.0000000000
 24  10   5   7    1.0000000000
 70  10   5   7   -1.0000000000
 25  10   6   6    1.0000000000
 71  10   6   6   -1.0000000000
 26  10   6   7    1.0000000000
 72  10   6   7   -1.0000000000
 27  10   7   7    1.0000000000
 73  10   7   7   -1.0000000000
  0  11   1   1   -1.0000000000
  4  11   1   1   -1.0000000000
  1  11   1   2    1.0000000000
 10  11   1   2   -1.0000000000
  2  11   1   3    1.0000000000
 15  11   1   3   -1.0000000000
  3  11   1   4    1.0000000000
 19  11   1   4   -1.0000000000
  4  11   1   5    1.0000000000
 22  11   1   5   -1.0000000000
  5  11   1   6    1.0000000000
 23  11   1   6   -1.0000000000
  6  11   1   7    1.0000000000
 24  11   1   7   -1.0000000000
  7  11   2   2    1.0000000000
 31  11   2   2   -1.0000000000
  8  11   2   3    1.0000000000
 36  11   2   3   -1.0000000000
  9  11   2   4    1.0000000000
 40  11   2   4   -1.0000000000
 10  11   2   5    1.0000000000
 43  11   2   5   -1.0000000000
 11  11   2   6    1.0000000000
 44  11   2   6   -1.0000000000
 12  11   2   7    1.0000000000
 45  11   2   7   -1.0000000000
 13  11   3   3    1.0000000000
 51  11   3   3   -1.0000000000
 14  11   3   4    1.0000000000
 55  11   3   4   -1.0000000000
 15  11   3   5    1.0000000000
 58  11   3   5   -1.0000000000
 16  11   3   6    1.0000000000
 59  11   3   6   -1.0000000000
 17  11   3   7    1.0000000000
 60  11   3   7   -1.0000000000
 18  11   4   4    1.0000000000
 65  11   4   4   -1.0000000000
 19  11   4   5    1.0000000000
 68  11   4   5   -1.0000000000
 20  11   4   6    1.0000000000
 69  11   4   6   -1.0000000000
 21  11   4   7    1.0000000000
 70  11   4   7   -1.0000000000
 22  11   5   5    1.0000000000
 74  11   5   5   -1.0000000000
 23  11   5   6    1.0000000000
 75  11   5   6   -1.0000000000
 24  11   5   7    1.0000000000
 76  11   5   7   -1.0000000000
 25  11   6   6    1.0000000000
 77  11   6   6   -1.0000000000
 26  11   6   7    1.0000000000
 78  11   6   7   -1.0000000000
 27  11   7   7    1.0000000000
 79  11   7   7   -1.0000000000
  0  12   1   1   -1.0000000000
  5  12   1   1   -1.0000000000
  1  12   1   2    1.0000000000
 11  12   1   2   -1.0000000000
  2  12   1   3    1.0000000000
 16  12   1   3   -1.0000000000
  3  12   1   4    1.0000000000
 20  12   1   4   -1.0000000000
  4  12   1   5    1.0000000000
 23  12   1   5   -1.0000000000
  5  12   1   6    1.0000000000
 25  12   1   6   -1.0000000000
  6  12   1   7    1.0000000000
 26  12   1   7   -1.0000000000
  7  12   2   2    1.0000000000
 32  12   2   2   -1.0000000000
  8  12   2   3    1.0000000000
 37  12   2   3   -1.0000000000
  9  12   2   4    1.0000000000
 41  12   2   4   -1.0000000000
 10  12   2   5    1.0000000000
 44  12   2   5   -1.0000000000
 11  12   2   6    1.0000000000
 46  12   2   6   -1.0000000000
 12  12   2   7    1.0000000000
 47  12   2   7   -1.0000000000
 13  12   3   3    1.0000000000
 52  12   3   3   -1.0000000000
 14  12   3   4    1.0000000000
 56  12   3   4   -1.0000000000
 15  12   3   5    1.0000000000
 59  12   3   5   -1.0000000000
 16  12   3   6    1.0000000000
 61  12   3   6   -1.0000000000
 17  12   3   7    1.0000000000
 62  12   3   7   -1.0000000000
 18  12   4   4    1.0000000000
 66  12   4   4   -1.0000000000
 19  12   4   5    1.0000000000
 69  12   4   5   -1.0000000000
 20  12   4   6    1.0000000000
 71  12   4   6   -1.0000000000
 21  12   4   7    1.0000000000
 72  12   4   7   -1.0000000000
 22  12   5   5    1.0000000000
 75  12   5   5   -1.0000000000
 23  12   5   6    1.0000000000
 77  12   5   6   -1.0000000000
 24  12   5   7    1.0000000000
 78  12   5   7   -1.0000000000
 25  12   6   6    1.0000000000
 80  12   6   6   -1.0000000000
 26  12   6   7    1.0000000000
 81  12   6   7   -1.0000000000
 27  12   7   7    1.0000000000
 82  12   7   7   -1.0000000000
  0  13   1   1   -1.0000000000
  6  13   1   1   -1.0000000000
  1  13   1   2    1.0000000000
 12  13   1   2   -1.0000000000
  2  13   1   3    1.0000000000
 17  13   1   3   -1.0000000000
  3  13   1   4    1.0000000000
 21  13   1   4   -1.0000000000
  4  13   1   5    1.0000000000
 24  13   1   5   -1.0000000000
  5  13   1   6    1.0000000000
 26  13   1   6   -1.0000000000
  6  13   1   7    1.0000000000
 27  13   1   7   -1.0000000000
  7  13   2   2    1.0000000000
 33  13   2   2   -1.0000000000
  8  13   2   3    1.0000000000
 38  13   2   3   -1.0000000000
  9  13   2   4    1.0000000000
 42  13   2   4   -1.0000000000
 10  13   2   5    1.0000000000
 45  13   2   5   -1.0000000000
 11  13   2   6    1.0000000000
 47  13   2   6   -1.0000000000
 12  13   2   7    1.0000000000
 48  13   2   7   -1.0000000000
 13  13   3   3    1.0000000000
 53  13   3   3   -1.0000000000
 14  13   3   4    1.0000000000
 57  13   3   4   -1.0000000000
 15  13   3   5    1.0000000000
 60  13   3   5   -1.0000000000
 16  13   3   6    1.0000000000
 62  13   3   6   -1.0000000000
 17  13   3   7    1.0000000000
 63  13   3   7   -1.0000000000
 18  13   4   4    1.0000000000
 67  13   4   4   -1.0000000000
 19  13   4   5    1.0000000000
 70  13   4   5   -1.0000000000
 20  13   4   6    1.0000000000
 72  13   4   6   -1.0000000000
 21  13   4   7    1.0000000000
 73  13   4   7   -1.0000000000
 22  13   5   5    1.0000000000
 76  13   5   5   -1.0000000000
 23  13   5   6    1.0000000000
 78  13   5   6   -1.0000000000
 24  13   5   7    1.0000000000
 79  13   5   7   -1.0000000000
 25  13   6   6    1.0000000000
 81  13   6   6   -1.0000000000
 26  13   6   7    1.0000000000
 82  13   6   7   -1.0000000000
 27  13   7   7    1.0000000000
 83  13   7   7   -1.0000000000
